c Example DIMACS 3-sat
p cnf 5 3
1 4 -5 0
-1 5 3 4 0
-3 -4 0

Il risultato teorico che risulterebbe da questa soddisfacibilità è: (-1 -2 -3 -4 -5), (-1 2 -3 -4 -5), (-1 -2 3 -4 -5), 
(1 -2 3 -4 -5), (-1 2 3 -4 -5), (1 2 3 -4 -5), (-1 -2 -3 4 -5), (1 -2 -3 4 -5), (-1 2 -3 4 -5), (1 2 -3 4 -5), (1 -2 -3 -4 5),
(1 2 -3 -4 5), (1 -2 3 -4 5), (1 2 3 -4 5), (-1 -2 -3 4 5), (1 -2 -3 4 5), (-1 2 -3 4 5), (1 2 -3 4 5).
Il risultato dell'algoritmo sono i seguenti risultati: 00000, 00010, 00100, 00101, 00110, 00111, 01000, 01001, 01010, 01011
, 10001, 10011, 10101, 10111, 11000, 11001, 11010, 11011, che corrispondono alle soluzioni teoriche viste prima
